# Solution for model F-JSSP-SDST
# Objective value = 221
B0(13) 0
B1(13) 1
B2(13) 1
B3(13) 0
B4(14) 1
B5(14) 0
B6(14) 0
B7(14) 1
B8(13) 1
B9(13) 0
B10(13) 0
B11(13) 1
B12(0) 0
B13(0) 0
B14(4) 0
B15(4) 0
B16(4) 0
B17(4) 0
B18(0) 0
B19(0) 0
B20(4) 1
B21(4) 0
B22(4) 1
B23(4) 0
B24(0) 0
B25(0) 0
B26(0) 0
B27(0) 0
B28(4) 1
B29(4) 0
B30(0) 0
B31(0) 0
B32(0) 0
B33(0) 0
B34(4) 0
B35(4) 1
B36(0) 0
B37(0) 0
B38(0) 0
B39(0) 0
B40(0) 0
B41(0) 0
B42(0) 0
B43(0) 0
B44(0) 0
B45(0) 0
B46(0) 0
B47(0) 0
I48(14) 0
I49(14) 0
I50(17) 62
I51(17) 0
I52(14) 24
I53(14) 0
I54(17) 0
I55(17) 80
I56(14) 0
I57(14) 0
I58(17) 0
I59(17) 39
I60(1) 221
B61(0) 0
B62(0) 0
B63(3) 1
B64(3) 0
B65(0) 0
B66(0) 0
B67(3) 0
B68(3) 1
B69(0) 0
B70(0) 0
B71(3) 0
B72(3) 1
